60
907
30
0 1
0 2
0 4
0 5
0 6
0 8
0 11
0 13
0 14
0 16
0 21
0 23
0 24
0 26
0 27
0 28
0 29
0 30
0 32
0 34
0 35
0 38
0 40
0 42
0 47
0 48
0 49
0 50
0 52
0 55
0 56
0 57
0 59
1 5
1 6
1 7
1 9
1 10
1 11
1 12
1 13
1 14
1 17
1 18
1 21
1 22
1 24
1 25
1 26
1 27
1 28
1 29
1 30
1 33
1 34
1 35
1 39
1 43
1 45
1 47
1 51
1 52
1 53
1 54
1 57
2 7
2 9
2 10
2 11
2 12
2 16
2 18
2 20
2 27
2 28
2 29
2 30
2 34
2 35
2 36
2 38
2 40
2 43
2 45
2 47
2 49
2 52
2 54
2 56
3 4
3 6
3 7
3 9
3 12
3 13
3 14
3 15
3 16
3 18
3 22
3 23
3 24
3 25
3 26
3 28
3 30
3 32
3 33
3 34
3 36
3 37
3 38
3 39
3 41
3 43
3 46
3 48
3 49
3 50
3 53
3 54
3 56
3 57
4 6
4 9
4 11
4 15
4 18
4 21
4 25
4 26
4 28
4 29
4 30
4 31
4 37
4 38
4 39
4 40
4 42
4 43
4 46
4 48
4 50
4 51
4 52
4 53
4 54
4 55
4 57
4 59
5 6
5 11
5 12
5 13
5 14
5 15
5 18
5 20
5 21
5 22
5 25
5 28
5 29
5 31
5 34
5 35
5 36
5 40
5 41
5 44
5 45
5 46
5 48
5 49
5 50
5 52
5 53
5 55
5 59
6 9
6 10
6 11
6 13
6 14
6 15
6 16
6 17
6 22
6 23
6 24
6 27
6 29
6 30
6 32
6 33
6 34
6 36
6 37
6 39
6 43
6 44
6 46
6 51
6 52
6 53
6 54
6 55
6 56
6 58
6 59
7 9
7 10
7 14
7 16
7 17
7 20
7 21
7 22
7 23
7 25
7 26
7 27
7 33
7 35
7 36
7 38
7 42
7 45
7 46
7 50
7 51
7 52
7 53
7 54
7 57
7 59
8 10
8 12
8 13
8 14
8 15
8 22
8 23
8 24
8 25
8 26
8 29
8 31
8 33
8 34
8 35
8 36
8 37
8 41
8 42
8 43
8 48
8 50
8 53
8 55
8 56
8 58
8 59
9 10
9 11
9 14
9 16
9 17
9 18
9 19
9 21
9 27
9 29
9 31
9 32
9 36
9 37
9 40
9 42
9 45
9 46
9 48
9 50
9 51
9 53
9 54
9 55
9 56
9 57
9 58
10 12
10 14
10 16
10 18
10 19
10 22
10 27
10 30
10 31
10 32
10 34
10 36
10 37
10 38
10 39
10 40
10 41
10 43
10 44
10 47
10 48
10 50
10 51
10 53
10 54
10 55
10 56
10 57
10 58
11 14
11 16
11 17
11 19
11 21
11 22
11 23
11 24
11 25
11 26
11 28
11 30
11 33
11 34
11 35
11 37
11 42
11 43
11 44
11 45
11 46
11 47
11 49
11 50
11 53
11 54
11 57
12 13
12 16
12 18
12 20
12 22
12 23
12 24
12 29
12 31
12 33
12 34
12 35
12 36
12 37
12 43
12 44
12 45
12 47
12 49
12 51
12 52
12 55
12 57
12 58
13 14
13 15
13 18
13 19
13 21
13 24
13 25
13 26
13 27
13 28
13 29
13 30
13 32
13 34
13 35
13 36
13 37
13 38
13 39
13 41
13 43
13 46
13 48
13 49
13 54
13 55
13 59
14 17
14 18
14 19
14 20
14 21
14 22
14 23
14 25
14 28
14 33
14 38
14 39
14 40
14 41
14 42
14 43
14 44
14 45
14 46
14 47
14 49
14 50
14 51
14 52
14 55
14 57
15 16
15 18
15 19
15 20
15 23
15 25
15 28
15 29
15 30
15 31
15 32
15 33
15 40
15 45
15 46
15 50
15 51
15 53
15 54
15 55
16 18
16 19
16 21
16 23
16 25
16 28
16 29
16 30
16 31
16 33
16 34
16 36
16 37
16 39
16 41
16 43
16 45
16 47
16 49
16 51
16 55
16 56
16 59
17 19
17 20
17 22
17 23
17 25
17 26
17 29
17 33
17 36
17 37
17 38
17 39
17 43
17 45
17 46
17 47
17 48
17 50
17 51
17 52
17 53
17 54
17 55
17 56
17 57
18 19
18 21
18 22
18 27
18 28
18 29
18 32
18 33
18 41
18 43
18 44
18 45
18 47
18 51
18 52
18 53
18 55
18 57
18 58
18 59
19 20
19 22
19 23
19 28
19 32
19 33
19 34
19 36
19 38
19 41
19 43
19 46
19 48
19 51
19 52
19 54
19 59
20 21
20 25
20 26
20 27
20 28
20 29
20 31
20 34
20 42
20 49
20 51
20 52
20 54
20 58
21 24
21 25
21 27
21 29
21 30
21 31
21 33
21 34
21 37
21 38
21 39
21 40
21 41
21 42
21 43
21 44
21 48
21 49
21 50
21 52
21 54
21 55
21 58
22 24
22 27
22 30
22 32
22 33
22 34
22 35
22 37
22 39
22 41
22 44
22 45
22 48
22 50
22 52
22 54
22 55
22 58
23 30
23 35
23 37
23 40
23 41
23 42
23 44
23 45
23 46
23 49
23 50
23 51
23 53
23 54
23 56
23 58
23 59
24 27
24 28
24 29
24 31
24 35
24 36
24 38
24 40
24 41
24 43
24 47
24 48
24 50
24 51
24 52
24 54
24 56
24 59
25 28
25 29
25 32
25 33
25 35
25 39
25 40
25 42
25 44
25 46
25 48
25 50
25 51
25 53
25 55
25 56
25 59
26 29
26 32
26 34
26 40
26 41
26 43
26 44
26 46
26 49
26 50
26 53
26 55
26 57
26 59
27 29
27 30
27 33
27 34
27 38
27 39
27 40
27 41
27 42
27 43
27 48
27 50
27 51
27 54
27 58
27 59
28 30
28 32
28 35
28 39
28 40
28 41
28 42
28 43
28 44
28 49
28 53
28 55
28 57
28 58
29 32
29 33
29 37
29 43
29 47
29 49
29 50
29 52
29 55
29 57
30 31
30 34
30 35
30 38
30 43
30 44
30 48
30 50
30 51
30 53
30 54
30 58
31 34
31 35
31 36
31 37
31 38
31 39
31 40
31 41
31 42
31 43
31 44
31 47
31 51
31 52
31 56
31 58
32 34
32 38
32 39
32 40
32 41
32 43
32 44
32 45
32 48
32 49
32 51
32 52
32 54
32 55
32 58
32 59
33 34
33 39
33 41
33 44
33 47
33 52
33 53
33 58
34 36
34 37
34 39
34 40
34 43
34 46
34 47
34 48
34 49
34 50
34 52
34 53
34 54
34 57
35 37
35 38
35 39
35 40
35 45
35 47
35 48
35 52
35 55
35 56
35 59
36 37
36 43
36 44
36 45
36 47
36 49
36 53
36 55
36 56
36 57
36 58
36 59
37 38
37 39
37 40
37 41
37 42
37 45
37 46
37 47
37 48
37 52
37 53
37 54
37 55
37 56
37 58
38 40
38 44
38 48
38 50
38 51
38 53
38 55
39 41
39 42
39 43
39 44
39 46
39 48
39 49
39 50
39 52
39 53
39 54
39 56
40 41
40 42
40 43
40 44
40 46
40 47
40 48
40 49
40 50
40 51
40 52
40 55
40 59
41 42
41 43
41 44
41 45
41 47
41 55
41 56
41 57
41 59
42 43
42 47
42 48
42 49
42 51
42 52
42 53
42 55
42 59
43 44
43 45
43 46
43 47
43 49
43 50
43 51
43 54
43 55
43 57
43 58
43 59
44 46
44 48
44 49
44 50
44 51
44 52
44 57
44 59
45 47
45 48
45 52
45 54
45 55
45 57
46 51
46 53
47 53
47 56
47 58
48 49
48 50
48 51
48 52
48 54
48 55
49 51
49 54
49 57
49 58
49 59
50 52
50 53
50 54
50 56
50 58
50 59
51 52
51 53
51 54
51 56
51 57
52 54
52 57
52 59
53 56
53 57
54 57
54 58
55 59
57 59
58 59
32 45
46 47
36 53
27 30
37 40
25 43
5 41
34 57
39 48
6 9
49 59
4 15
13 38
22 29
21 31
14 33
0 56
7 44
18 42
17 23
2 55
8 12
10 58
16 35
11 26
24 50
52 54
1 28
19 51
3 20
